
n_res = 4;
rcap = [29, 33, 261, 278];
rtype = [1, 1, 2, 2];
n_tasks = 50;
modes =  [{1, 2, 3}, {4, 5, 6}, {7, 8, 9}, {10, 11, 12}, {13, 14, 15}, {16, 17, 18}, {19, 20, 21}, {22, 23, 24}, {25, 26, 27}, {28, 29, 30}, {31, 32, 33}, {34, 35, 36}, {37, 38, 39}, {40, 41, 42}, {43, 44, 45}, {46, 47, 48}, {49, 50, 51}, {52, 53, 54}, {55, 56, 57}, {58, 59, 60}, {61, 62, 63}, {64, 65, 66}, {67, 68, 69}, {70, 71, 72}, {73, 74, 75}, {76, 77, 78}, {79, 80, 81}, {82, 83, 84}, {85, 86, 87}, {88, 89, 90}, {91, 92, 93}, {94, 95, 96}, {97, 98, 99}, {100, 101, 102}, {103, 104, 105}, {106, 107, 108}, {109, 110, 111}, {112, 113, 114}, {115, 116, 117}, {118, 119, 120}, {121, 122, 123}, {124, 125, 126}, {127, 128, 129}, {130, 131, 132}, {133, 134, 135}, {136, 137, 138}, {139, 140, 141}, {142, 143, 144}, {145, 146, 147}, {148, 149, 150}];
succ =  [{20, 16, 11, 7, 5}, {20, 17, 14, 13, 12, 11}, {20, 19, 17, 13, 10}, {20, 11, 6}, {19, 17, 13, 10}, {19, 13, 12}, {19, 14, 12}, {13, 11}, {14, 10}, {12}, {23, 22, 21, 19, 18}, {15}, {15}, {15}, {23, 22, 21, 18}, {23, 22, 21, 19}, {27, 24, 23, 22}, {35, 27, 26, 24}, {35, 25, 24}, {21}, {39, 34, 33, 31, 28, 27, 26}, {35, 33, 28, 25}, {41, 40, 39, 34, 33, 31, 30}, {34, 33, 32, 31, 28}, {39, 26}, {32, 30, 29}, {36, 32, 29}, {43, 41, 40, 38, 37, 36}, {50, 44, 43, 41, 38, 37}, {50, 43, 38, 37, 36}, {50, 44, 38, 37, 36}, {43, 40, 38, 37}, {50, 46, 45, 43, 42}, {44, 43, 37}, {40, 39}, {49, 46, 45, 42}, {49, 48, 46, 45}, {46, 45, 42}, {50, 49, 44}, {50, 49, 48}, {48, 45}, {48, 47}, {49, 48}, {45}, {47}, {47}, {}, {}, {}, {}];
n_opt = 150;
dur = [1, 4, 5, 4, 5, 7, 4, 6, 9, 1, 8, 10, 1, 2, 3, 1, 2, 6, 2, 3, 8, 4, 7, 8, 5, 7, 8, 1, 2, 9, 2, 4, 8, 5, 7, 8, 2, 4, 9, 3, 8, 9, 5, 7, 8, 2, 4, 5, 6, 7, 8, 1, 2, 5, 2, 3, 10, 3, 5, 6, 1, 6, 7, 7, 8, 9, 1, 5, 6, 7, 8, 9, 1, 6, 10, 2, 5, 8, 3, 6, 7, 5, 6, 7, 1, 2, 9, 3, 6, 10, 6, 7, 10, 1, 2, 10, 3, 5, 8, 1, 7, 9, 3, 4, 6, 3, 7, 8, 4, 6, 9, 2, 3, 6, 1, 2, 5, 2, 7, 8, 1, 5, 6, 1, 2, 8, 3, 4, 8, 3, 4, 10, 1, 2, 3, 4, 5, 6, 3, 4, 9, 2, 3, 7, 1, 5, 6, 1, 6, 10];
rreq = [|8, 7, 6, 4, 3, 2, 7, 5, 4, 8, 4, 3, 7, 5, 2, 9, 9, 9, 1, 1, 1, 9, 4, 2, 7, 5, 5, 10, 6, 5, 8, 8, 7, 8, 7, 2, 9, 6, 2, 7, 6, 5, 5, 5, 4, 5, 5, 4, 3, 3, 3, 10, 8, 6, 10, 8, 7, 7, 6, 5, 7, 7, 7, 10, 4, 2, 8, 6, 6, 4, 3, 2, 9, 6, 3, 7, 5, 4, 8, 5, 4, 7, 5, 5, 5, 4, 4, 8, 7, 6, 5, 4, 2, 5, 5, 4, 7, 4, 3, 7, 6, 5, 5, 5, 5, 9, 7, 5, 7, 5, 3, 7, 7, 7, 5, 5, 4, 6, 5, 2, 5, 4, 3, 5, 4, 4, 4, 3, 1, 3, 3, 3, 6, 6, 4, 9, 7, 7, 5, 3, 3, 9, 9, 8, 9, 8, 7, 9, 9, 9
 |10, 9, 9, 8, 7, 6, 7, 5, 4, 8, 8, 8, 4, 2, 2, 5, 5, 5, 8, 6, 6, 10, 9, 9, 7, 3, 2, 9, 7, 7, 8, 4, 3, 10, 8, 8, 1, 1, 1, 3, 1, 1, 5, 3, 3, 7, 4, 3, 6, 4, 1, 10, 9, 9, 7, 5, 2, 6, 6, 5, 10, 8, 8, 8, 7, 7, 6, 5, 4, 6, 4, 3, 3, 2, 2, 6, 6, 4, 8, 8, 6, 8, 8, 8, 8, 5, 5, 4, 3, 2, 9, 8, 8, 3, 3, 2, 9, 8, 4, 6, 5, 4, 4, 4, 3, 4, 2, 1, 8, 6, 6, 4, 2, 2, 5, 3, 3, 9, 7, 7, 2, 1, 1, 8, 7, 7, 4, 4, 4, 4, 4, 3, 5, 3, 2, 5, 5, 4, 3, 2, 1, 8, 4, 3, 6, 6, 6, 8, 6, 6
 |9, 9, 8, 6, 4, 4, 4, 3, 2, 5, 3, 1, 9, 8, 8, 3, 2, 2, 7, 6, 6, 5, 4, 3, 8, 7, 6, 8, 5, 3, 7, 5, 1, 5, 4, 2, 4, 3, 2, 8, 7, 7, 2, 2, 2, 3, 3, 1, 7, 6, 5, 2, 1, 1, 6, 5, 5, 10, 10, 10, 8, 6, 5, 6, 4, 4, 10, 10, 10, 7, 6, 4, 5, 4, 3, 3, 2, 2, 4, 4, 3, 6, 6, 5, 8, 5, 4, 10, 8, 8, 4, 4, 4, 9, 8, 8, 3, 2, 2, 9, 3, 3, 6, 3, 2, 7, 7, 4, 6, 4, 4, 7, 7, 7, 7, 5, 1, 4, 2, 2, 8, 7, 6, 7, 6, 6, 6, 3, 2, 9, 8, 8, 5, 4, 3, 5, 4, 4, 9, 7, 5, 7, 5, 3, 4, 4, 4, 7, 6, 4
 |7, 5, 5, 4, 4, 3, 10, 7, 3, 7, 6, 5, 6, 3, 3, 8, 5, 4, 5, 3, 2, 3, 3, 3, 9, 6, 6, 8, 3, 3, 7, 5, 4, 7, 6, 3, 9, 8, 6, 6, 4, 2, 8, 7, 7, 5, 5, 5, 3, 2, 2, 9, 7, 2, 2, 1, 1, 10, 9, 8, 5, 4, 4, 5, 4, 4, 9, 7, 7, 9, 8, 8, 3, 2, 2, 9, 9, 8, 8, 8, 8, 8, 7, 2, 4, 4, 4, 6, 6, 6, 7, 5, 5, 10, 9, 9, 10, 7, 6, 5, 5, 5, 6, 4, 3, 5, 4, 4, 10, 6, 4, 10, 6, 3, 4, 4, 3, 7, 6, 4, 8, 6, 4, 6, 4, 3, 6, 6, 4, 6, 3, 3, 6, 5, 5, 4, 3, 3, 9, 8, 7, 8, 6, 3, 8, 6, 1, 8, 6, 5|];